100
504 803 667 1103 834 585 811 856 690 832 846 813 868 793 825 1002 860 615 540 797 616 660 707 866 647 746 1006 608 877 900 573 788 484 853 942 630 591 630 640 1169 932 1034 957 798 669 625 467 1051 552 717 654 388 559 555 1104 783 959 668 507 855 986 831 821 825 868 852 832 828 799 686 510 671 575 740 510 675 996 636 826 1022 1140 654 909 799 1162 653 814 625 599 476 767 954 906 904 649 873 565 853 1008 632 
11551 
806 361 199 781 596 669 957 358 259 888 319 751 275 177 883 749 229 265 282 694 819 77 190 551 140 442 867 283 137 359 445 58 440 192 485 744 844 969 50 833 57 877 482 732 968 113 486 710 439 747 174 260 877 474 841 422 280 684 330 910 791 322 404 403 519 148 948 414 894 147 73 297 97 651 380 67 582 973 143 732 624 518 847 113 382 97 905 398 859 4 142 110 11 213 398 173 106 331 254 447 
